55782
34, 53, 26, 55, 28, 6, 3, 43, 13, 40, 51, 7, 37, 5, 24, 35, 20, 50, 38, 44, 8, 32, 41, 19, 49, 48, 17, 21, 23, 29, 22, 10, 39, 46, 36, 15, 16, 52, 45, 11, 31, 25, 27, 1, 33, 42, 2, 14, 9, 12, 4, 18, 30, 47, 54
